17	4
14	14	13	15	
0	0	0	0	0	3	2	3	4	
10	2	4	3	3	3	5	7	10	
10	6	8	3	1	3	7	16	17	
2	2	10	1	1	3	9	10	11	
8	6	10	4	3	3	6	17	17	
250	6	1	7	3	3	9	11	15	
25	1	6	9	10	3	8	9	17	
175	6	7	10	2	3	14	17	17	
200	2	1	3	6	3	13	17	17	
225	8	1	3	9	3	17	17	17	
200	8	1	8	9	3	12	17	17	
200	9	3	7	5	3	13	16	17	
2	8	8	10	1	3	14	17	17	
1	3	1	5	8	1	17	
4	9	8	4	4	3	17	17	17	
9	8	7	3	5	3	17	17	17	
0	0	0	0	0	0	
